param W_CLASS:=
1 -0.004356043705112514
2 0.014263212958030578
3 -60.50961941608747
4 -60.50961941608747
5 60.50961941608747
6 0.7829935273538453
7 0.32309811590998794
8 -0.7983236218500926
9 -0.12823586144003876
10 60.50961941608747
11 -14.592960702194027
12 -60.50961941608747
13 -10.496406083546304
14 -60.50961941608747
15 -53.040077724203115
16 -60.50961941608747
17 24.824343406814407
18 5.87195030744159
19 -60.50961941608747;

param B_CLASS:= -413.35848465236154 ;